language ESSENCE' 1.0
$ loaded file: carseqdata/reginpuget3.car
letting numcars=100
letting numclasses=25
letting numoptions=5
letting optMax=[1, 2, 1, 2, 1]
letting windowSize=[2, 3, 3, 5, 5]
letting numberPerClass=[7, 11, 1, 3, 15, 2, 8, 5, 3, 4, 5, 2, 6, 2, 2, 4, 3, 5, 2, 4, 1, 1, 1, 1, 2]
letting optionsRequired=[[1, 0, 0, 1, 0], [1, 1, 0, 0, 0], [0, 1, 1, 1, 1], [1, 0, 1, 0, 0], [0, 1, 0, 0, 0], [1, 0, 1, 1, 0], [0, 1, 0, 1, 0], [0, 0, 1, 0, 0], [0, 0, 0, 1, 0], [0, 1, 1, 1, 0], [1, 0, 0, 0, 0], [1, 1, 1, 0, 1], [0, 1, 1, 0, 0], [0, 0, 1, 0, 1], [0, 1, 0, 0, 1], [1, 1, 1, 1, 0], [1, 0, 0, 0, 1], [1, 1, 0, 1, 0], [1, 1, 1, 0, 0], [1, 1, 0, 0, 1], [1, 0, 0, 1, 1], [1, 1, 0, 1, 1], [0, 1, 0, 1, 1], [0, 1, 1, 0, 1], [0, 0, 0, 0, 1]]
